NAME: concorde6
TYPE: TSP
COMMENT: Generated by CCutil_writetsplib
COMMENT: Write called for by Concorde GUI
DIMENSION: 6
EDGE_WEIGHT_TYPE: EUC_2D
NODE_COORD_SECTION
1 30.147059 79.746835
2 45.996732 78.270042
3 61.192810 78.270042
4 60.049020 48.734177
5 43.545752 49.156118
6 30.228758 51.476793
